peakDumbCharging = 11100; 
Machine = anon_enum(16); 
machineSpeed = [3700,3700,3700,3700,3700,3700,3700,3700,3700,3700,3700,3700,3700,3700,3700,3700]; 
machineLoad = [3700,3700,3700,3700,3700,3700,3700,3700,3700,3700,3700,3700,3700,3700,3700,3700]; 
Car = anon_enum(10); 
demandCar = [3080,7120,4840,4800,7840,12080,4880,5800,6240,15000]; 
arrivalCar = [81,71,64,62,62,58,53,48,35,30]; 
departureCar = [83,74,66,64,65,63,55,51,38,36]; 
